============================[ Problem Statistics ]=============================|                                                                             ||  Number of variables:          4242                                         ||  Number of clauses:            9725                                         ||  Parse time:                   0.13 s                                       ||                                                                             |============================[ Search Statistics ]==============================| Conflicts |          ORIGINAL         |          LEARNT          | Progress ||           |    Vars  Clauses Literals |    Limit  Clauses Lit/Cl |          |==============================================================================================================================================================restarts              : 1conflicts             : 78             (380 /sec)decisions             : 163            (0.00 % random) (795 /sec)propagations          : 8201           (40005 /sec)conflict literals     : 3921           (95.96 % deleted)CPU time              : 0.205 sSATISFIABLE